15
1 0 6
2 0 6
2 1 3
3 0 3
3 1 7
3 2 7
4 0 7
4 1 3
4 2 3
4 3 6
5 0 7
5 1 6
5 2 4
5 3 6
5 4 4
6 0 2
6 1 1
6 2 4
6 3 2
6 4 5
6 5 4
7 0 5
7 1 3
7 2 2
7 3 6
7 4 3
7 5 5
7 6 7
8 0 5
8 1 4
8 2 4
8 3 6
8 4 4
8 5 2
8 6 4
8 7 1
9 0 3
9 1 4
9 2 4
9 3 5
9 4 5
9 5 4
9 6 4
9 7 4
9 8 5
10 0 4
10 1 1
10 2 4
10 3 2
10 4 3
10 5 3
10 6 2
10 7 6
10 8 3
10 9 1
11 0 7
11 1 6
11 2 6
11 3 5
11 4 1
11 5 5
11 6 5
11 7 4
11 8 3
11 9 3
11 10 6
12 0 6
12 1 3
12 2 6
12 3 6
12 4 5
12 5 5
12 6 6
12 7 2
12 8 6
12 9 7
12 10 5
12 11 3
13 0 3
13 1 5
13 2 2
13 3 2
13 4 3
13 5 3
13 6 6
13 7 7
13 8 7
13 9 5
13 10 5
13 11 6
13 12 1
14 0 3
14 1 5
14 2 5
14 3 4
14 4 5
14 5 7
14 6 7
14 7 6
14 8 6
14 9 1
14 10 5
14 11 3
14 12 4
14 13 3
